WTe2 Structure (A=W, B/C=Te)
1.0
3.518600  0.000000  0.000000
0.000000  6.302300  0.000000
0.000000  0.000000 15.005800
W  Te
5  6
Direct
1.000000  0.000000  0.000000
0.000000  0.000000  0.000000
1.000000  1.000000  0.000000
0.000000  1.000000  0.000000
0.500000  0.644380  0.014380
1.000000  0.396110 -0.090100
0.500000  0.248270  0.104480
0.000000  0.396110 -0.090100
1.000000  0.741950  0.145510
0.500000  0.902430 -0.131130
0.000000  0.741950  0.145510